Problem:    
Rows:       21
Columns:    120 (120 integer, 0 binary)
Non-zeros:  210
Status:     INTEGER OPTIMAL
Objective:  Maintenance_costs = 18871 (MINimum)

   No.   Row name        Activity     Lower bound   Upper bound
------ ------------    ------------- ------------- -------------
     1 Anvers_Base_Trips
                                 545           545               
     2 Bruxelles_Base_Trips
                                 375           375               
     3 Charleroi_Base_Trips
                                 727           727               
     4 Gand_Base_Trips
                                 121           121               
     5 Hasselt_Base_Trips
                                  21            21               
     6 Liege_Acid_Trips
                                1818          1818               
     7 Truck_10_Time_Check
                             1.57143             0               
     8 Truck_11_Time_Check
                                   0             0               
     9 Truck_12_Time_Check
                             94.5714             0               
    10 Truck_13_Time_Check
                             1.71429             0               
    11 Truck_14_Time_Check
                                   0             0               
    12 Truck_15_Time_Check
                             2.42857             0               
    13 Truck_1_Time_Check
                            0.428571             0               
    14 Truck_2_Time_Check
                                   0             0               
    15 Truck_3_Time_Check
                                   0             0               
    16 Truck_4_Time_Check
                                   3             0               
    17 Truck_5_Time_Check
                             3.28571             0               
    18 Truck_6_Time_Check
                                   0             0               
    19 Truck_7_Time_Check
                                   0             0               
    20 Truck_8_Time_Check
                                   0             0               
    21 Truck_9_Time_Check
                             1.42857             0               

   No. Column name       Activity     Lower bound   Upper bound
------ ------------    ------------- ------------- -------------
     1 Truck_10_buy *              0             0            12 
     2 Truck_10_sell
                    *             12             0            12 
     3 Truck_11_buy *              0             0            12 
     4 Truck_11_sell
                    *              2             0            12 
     5 Truck_12_buy *              0             0            12 
     6 Truck_12_sell
                    *              9             0            12 
     7 Truck_13_buy *              0             0            12 
     8 Truck_13_sell
                    *             12             0            12 
     9 Truck_14_buy *              0             0            12 
    10 Truck_14_sell
                    *             12             0            12 
    11 Truck_15_buy *              0             0            12 
    12 Truck_15_sell
                    *             12             0            12 
    13 Truck_1_buy  *              0             0            12 
    14 Truck_1_sell *             12             0            12 
    15 Truck_2_buy  *              1             0            12 
    16 Truck_2_sell *             12             0            12 
    17 Truck_3_buy  *              0             0            12 
    18 Truck_3_sell *             12             0            12 
    19 Truck_4_buy  *              0             0            12 
    20 Truck_4_sell *              4             0            12 
    21 Truck_5_buy  *              9             0            12 
    22 Truck_5_sell *             12             0            12 
    23 Truck_6_buy  *              0             0            12 
    24 Truck_6_sell *              0             0            12 
    25 Truck_7_buy  *              0             0            12 
    26 Truck_7_sell *              0             0            12 
    27 Truck_8_buy  *              0             0            12 
    28 Truck_8_sell *              0             0            12 
    29 Truck_9_buy  *              0             0            12 
    30 Truck_9_sell *             12             0            12 
    31 Route_10_('Liege',_'Anvers')
                    *             11             0               
    32 Route_11_('Liege',_'Anvers')
                    *              3             0               
    33 Route_12_('Liege',_'Anvers')
                    *              0             0               
    34 Route_13_('Liege',_'Anvers')
                    *            376             0               
    35 Route_14_('Liege',_'Anvers')
                    *            124             0               
    36 Route_15_('Liege',_'Anvers')
                    *              0             0               
    37 Route_1_('Liege',_'Anvers')
                    *              0             0               
    38 Route_2_('Liege',_'Anvers')
                    *              0             0               
    39 Route_3_('Liege',_'Anvers')
                    *              0             0               
    40 Route_4_('Liege',_'Anvers')
                    *              0             0               
    41 Route_5_('Liege',_'Anvers')
                    *             31             0               
    42 Route_6_('Liege',_'Anvers')
                    *              0             0               
    43 Route_7_('Liege',_'Anvers')
                    *              0             0               
    44 Route_8_('Liege',_'Anvers')
                    *              0             0               
    45 Route_9_('Liege',_'Anvers')
                    *              0             0               
    46 Route_10_('Liege',_'Bruxelles')
                    *            375             0               
    47 Route_11_('Liege',_'Bruxelles')
                    *              0             0               
    48 Route_12_('Liege',_'Bruxelles')
                    *              0             0               
    49 Route_13_('Liege',_'Bruxelles')
                    *              0             0               
    50 Route_14_('Liege',_'Bruxelles')
                    *              0             0               
    51 Route_15_('Liege',_'Bruxelles')
                    *              0             0               
    52 Route_1_('Liege',_'Bruxelles')
                    *              0             0               
    53 Route_2_('Liege',_'Bruxelles')
                    *              0             0               
    54 Route_3_('Liege',_'Bruxelles')
                    *              0             0               
    55 Route_4_('Liege',_'Bruxelles')
                    *              0             0               
    56 Route_5_('Liege',_'Bruxelles')
                    *              0             0               
    57 Route_6_('Liege',_'Bruxelles')
                    *              0             0               
    58 Route_7_('Liege',_'Bruxelles')
                    *              0             0               
    59 Route_8_('Liege',_'Bruxelles')
                    *              0             0               
    60 Route_9_('Liege',_'Bruxelles')
                    *              0             0               
    61 Route_10_('Liege',_'Charleroi')
                    *              1             0               
    62 Route_11_('Liege',_'Charleroi')
                    *              0             0               
    63 Route_12_('Liege',_'Charleroi')
                    *            275             0               
    64 Route_13_('Liege',_'Charleroi')
                    *              1             0               
    65 Route_14_('Liege',_'Charleroi')
                    *              0             0               
    66 Route_15_('Liege',_'Charleroi')
                    *             52             0               
    67 Route_1_('Liege',_'Charleroi')
                    *              3             0               
    68 Route_2_('Liege',_'Charleroi')
                    *              0             0               
    69 Route_3_('Liege',_'Charleroi')
                    *              0             0               
    70 Route_4_('Liege',_'Charleroi')
                    *              0             0               
    71 Route_5_('Liege',_'Charleroi')
                    *              0             0               
    72 Route_6_('Liege',_'Charleroi')
                    *              0             0               
    73 Route_7_('Liege',_'Charleroi')
                    *              0             0               
    74 Route_8_('Liege',_'Charleroi')
                    *              0             0               
    75 Route_9_('Liege',_'Charleroi')
                    *            395             0               
    76 Route_10_('Liege',_'Gand')
                    *              0             0               
    77 Route_11_('Liege',_'Gand')
                    *              0             0               
    78 Route_12_('Liege',_'Gand')
                    *              1             0               
    79 Route_13_('Liege',_'Gand')
                    *              0             0               
    80 Route_14_('Liege',_'Gand')
                    *              0             0               
    81 Route_15_('Liege',_'Gand')
                    *              0             0               
    82 Route_1_('Liege',_'Gand')
                    *              0             0               
    83 Route_2_('Liege',_'Gand')
                    *              0             0               
    84 Route_3_('Liege',_'Gand')
                    *              0             0               
    85 Route_4_('Liege',_'Gand')
                    *             67             0               
    86 Route_5_('Liege',_'Gand')
                    *             53             0               
    87 Route_6_('Liege',_'Gand')
                    *              0             0               
    88 Route_7_('Liege',_'Gand')
                    *              0             0               
    89 Route_8_('Liege',_'Gand')
                    *              0             0               
    90 Route_9_('Liege',_'Gand')
                    *              0             0               
    91 Route_10_('Liege',_'Hasselt')
                    *             10             0               
    92 Route_11_('Liege',_'Hasselt')
                    *              0             0               
    93 Route_12_('Liege',_'Hasselt')
                    *              1             0               
    94 Route_13_('Liege',_'Hasselt')
                    *              9             0               
    95 Route_14_('Liege',_'Hasselt')
                    *              0             0               
    96 Route_15_('Liege',_'Hasselt')
                    *              0             0               
    97 Route_1_('Liege',_'Hasselt')
                    *              0             0               
    98 Route_2_('Liege',_'Hasselt')
                    *              0             0               
    99 Route_3_('Liege',_'Hasselt')
                    *              0             0               
   100 Route_4_('Liege',_'Hasselt')
                    *              0             0               
   101 Route_5_('Liege',_'Hasselt')
                    *              1             0               
   102 Route_6_('Liege',_'Hasselt')
                    *              0             0               
   103 Route_7_('Liege',_'Hasselt')
                    *              0             0               
   104 Route_8_('Liege',_'Hasselt')
                    *              0             0               
   105 Route_9_('Liege',_'Hasselt')
                    *              0             0               
   106 Route_10_('Anvers',_'Liege')
                    *              0             0               
   107 Route_11_('Anvers',_'Liege')
                    *             61             0               
   108 Route_12_('Anvers',_'Liege')
                    *              0             0               
   109 Route_13_('Anvers',_'Liege')
                    *              0             0               
   110 Route_14_('Anvers',_'Liege')
                    *            260             0               
   111 Route_15_('Anvers',_'Liege')
                    *            333             0               
   112 Route_1_('Anvers',_'Liege')
                    *            381             0               
   113 Route_2_('Anvers',_'Liege')
                    *            352             0               
   114 Route_3_('Anvers',_'Liege')
                    *            384             0               
   115 Route_4_('Anvers',_'Liege')
                    *             47             0               
   116 Route_5_('Anvers',_'Liege')
                    *              0             0               
   117 Route_6_('Anvers',_'Liege')
                    *              0             0               
   118 Route_7_('Anvers',_'Liege')
                    *              0             0               
   119 Route_8_('Anvers',_'Liege')
                    *              0             0               
   120 Route_9_('Anvers',_'Liege')
                    *              0             0               

Integer feasibility conditions:

KKT.PE: max.abs.err = 0.00e+00 on row 0
        max.rel.err = 0.00e+00 on row 0
        High quality

KKT.PB: max.abs.err = 0.00e+00 on row 0
        max.rel.err = 0.00e+00 on row 0
        High quality

End of output
